

(assert (forall ((N Int) (i Int))
  (=>
    (and
      (not (or (exists ((j_0 Int)(j_1 Int)) (and (<= 0 j_1) (<= j_1 (- (+ i 1) 1)) (<= j_0 (- i 1)) (<= 0 j_0) (or (and (= i (+ i 1)) (= j_0 j_1)) (and (<= j_0 (- j_1 1)) (<= 0 j_0) (= i (+ i 1))) (and (= j_0 (+ i 1)) (= j_0 j_1)) (and (<= i (- j_1 1)) (<= 0 i) (= j_0 j_1))))) (exists ((j_0 Int)(j_1 Int)) (and (<= 0 j_1) (or (and (= i (+ i 1)) (= j_0 j_1)) (and (<= 0 (+ i 1)) (<= (+ i 1) (- i 1)) (= j_0 j_1)) (and (<= 0 j_1) (<= j_1 (- i 1)) (= i (+ i 1))) (and (= i j_1) (= j_0 j_1))) (<= j_1 (- (+ i 1) 1)) (<= j_0 (- N 1)) (<= i j_0))) (exists ((j_0 Int)(j_1 Int)) (and (<= 0 j_1) (<= j_1 (- (+ i 1) 1)) (or (and (= i (+ i 1)) (= j_0 j_1)) (and (= j_0 (+ i 1)) (= j_0 j_1)) (and (= i j_1) (= j_0 j_1))) (<= j_0 (- i 1)) (<= 0 j_0))) (exists ((j_0 Int)(j_1 Int)) (and (<= 0 j_1) (<= j_1 (- (+ i 1) 1)) (or (and (= i (+ i 1)) (= j_0 j_1)) (and (<= 0 (+ i 1)) (<= (+ i 1) (- j_0 1)) (= j_0 j_1)) (and (<= 0 j_1) (<= j_1 (- j_0 1)) (= i (+ i 1))) (and (= i j_1) (= j_0 j_1))) (<= j_0 (- i 1)) (<= 0 j_0))) (exists ((j_0 Int)(j_1 Int)) (and (<= (+ i 1) j_1) (<= j_1 (- N 1)) (or (and (= i (+ i 1)) (= j_0 j_1)) (and (<= i (- (+ i 1) 1)) (<= 0 i) (= j_0 j_1)) (and (<= 0 j_0) (<= j_0 (- (+ i 1) 1)) (= i (+ i 1))) (and (<= 0 (+ i 1)) (<= (+ i 1) (- i 1)) (= j_0 j_1)) (and (<= 0 j_1) (<= j_1 (- i 1)) (= i (+ i 1)))) (<= j_0 (- N 1)) (<= i j_0))) (exists ((j_0 Int)(j_1 Int)) (and (<= (+ i 1) j_1) (<= j_1 (- N 1)) (or (and (= i (+ i 1)) (= j_0 j_1)) (and (<= i (- (+ i 1) 1)) (<= 0 i) (= j_0 j_1)) (and (= j_0 (+ i 1)) (= j_0 j_1)) (and (<= 0 j_0) (<= j_0 (- (+ i 1) 1)) (= i (+ i 1)))) (<= j_0 (- i 1)) (<= 0 j_0))) (exists ((j_0 Int)(j_1 Int)) (and (<= (+ i 1) j_1) (<= j_1 (- N 1)) (or (and (<= 0 (+ i 1)) (<= (+ i 1) (- j_0 1)) (= j_0 j_1)) (and (<= 0 j_1) (<= j_1 (- j_0 1)) (= i (+ i 1))) (and (= i (+ i 1)) (= j_0 j_1)) (and (<= i (- (+ i 1) 1)) (<= 0 i) (= j_0 j_1)) (and (<= 0 j_0) (<= j_0 (- (+ i 1) 1)) (= i (+ i 1)))) (<= j_0 (- i 1)) (<= 0 j_0))) (exists ((j_0 Int)(j_1 Int)) (and (<= 0 j_1) (<= j_1 (- (+ i 1) 1)) (<= j_0 (- N 1)) (or (and (= i (+ i 1)) (= j_0 j_1)) (and (<= i (- j_1 1)) (<= 0 i) (= j_0 j_1)) (and (<= 0 (+ i 1)) (<= (+ i 1) (- i 1)) (= j_0 j_1)) (and (<= 0 j_1) (<= j_1 (- i 1)) (= i (+ i 1))) (and (<= j_0 (- j_1 1)) (<= 0 j_0) (= i (+ i 1)))) (<= i j_0))) (exists ((j_0 Int)(j_1 Int)) (and (<= 0 j_1) (<= j_1 (- (+ i 1) 1)) (or (and (<= 0 (+ i 1)) (<= (+ i 1) (- j_0 1)) (= j_0 j_1)) (and (<= 0 j_1) (<= j_1 (- j_0 1)) (= i (+ i 1))) (and (= i (+ i 1)) (= j_0 j_1)) (and (<= i (- j_1 1)) (<= 0 i) (= j_0 j_1)) (and (<= j_0 (- j_1 1)) (<= 0 j_0) (= i (+ i 1)))) (<= j_0 (- i 1)) (<= 0 j_0)))))
      (<= 1 (- i 1))
      (<= 1 (- N 1))
      (<= 0 i)
      (<= (+ i 1) (- N 1))
    )
    false
  )
))

(check-sat)